15 40
25
7 12 8 19
7 7 2 0
1 7 0 17
1 5 0 7
3 2 6 7
6 2 9 17
2 7 0 0
2 5 12 11
3 1 12 0
1 6 14 11
6 12 0 28
6 9 9 31
2 12 6 19
2 7 1 17
3 10 12 1
1 4 0 24
5 1 9 16
3 16 9 0
3 5 3 7
2 4 1 24
2 5 1 7
3 10 6 9
3 9 6 31
3 16 3 12
3 5 0 12
